ssat_solver_solve2
#level: 3
Abc_NtkNodeNum(s->pNtk): 590  , BDD limit: 10240
Build BDD success
level 2: 36 element
Exist
level 1: 4 element
Random
level 0: 20 element
Exist
c ssat solving in ABC
#var: 60
s SATISFIABLE
  > Upper bound = 2.500000e-01
  > Lower bound = 2.500000e-01
FINISHED CPU 0.11 MEM 0 MAXMEM 0 STALE 0 MAXMEM_RSS 0
<time name="ALL">120</time>
real 0.26
user 0.17
sys 0.12
